MARKOV
101
2 2 2 2 2 2 2 2 2 2 2 2 2 2 2 2 2 2 2 2 2 2 2 2 2 2 2 2 2 2 2 2 2 2 2 2 2 2 2 2 2 2 2 2 2 2 2 2 2 2 2 2 2 2 2 2 2 2 2 2 2 2 2 2 2 2 2 2 2 2 2 2 2 2 2 2 2 2 2 2 2 2 2 2 2 2 2 2 2 2 2 2 2 2 2 2 2 2 2 2 11
100
2 66 0
2 30 1
3 3 30 2
2 31 3
1 4
1 5
2 27 6
3 86 44 7
2 60 8
1 9
1 10
3 93 55 11
3 58 52 12
2 53 13
4 4 14 66 15
3 75 9 16
2 60 17
6 1 34 84 64 73 18
3 92 79 19
2 72 20
2 41 22
1 23
4 89 72 14 24
3 49 54 25
3 82 5 26
1 27
2 59 28
2 38 29
3 82 32 30
4 23 70 28 32
1 33
2 43 34
2 16 35
2 70 36
1 37
2 67 38
2 78 39
6 62 3 89 50 45 40
4 60 23 46 42
3 69 52 43
3 32 2 44
3 12 0 45
3 27 53 46
3 50 92 47
2 73 48
5 50 46 39 57 49
2 77 50
3 93 63 51
3 85 26 52
3 2 17 53
2 90 55
5 7 98 54 12 56
3 26 33 57
2 42 58
1 59
1 60
2 22 61
3 61 36 62
3 96 18 63
4 66 10 78 64
3 89 8 65
2 57 66
3 39 24 67
3 61 74 68
2 60 70
4 92 44 5 73
4 67 54 82 74
2 8 75
4 15 16 82 77
3 41 37 78
2 4 79
3 1 61 80
3 42 79 81
3 32 41 83
2 75 84
2 96 85
3 64 3 86
3 67 28 88
1 89
4 42 20 9 90
2 23 91
1 92
4 5 13 44 93
5 58 75 37 67 94
3 18 31 95
4 60 27 28 96
2 74 97
3 30 40 98
5 51 22 32 54 99
5 100 48 36 17 31
3 100 66 82
3 100 83 14
3 100 92 41
7 100 39 46 5 58 90 54
5 100 22 23 62 72
4 100 79 90 87
3 100 50 21
3 100 66 69
7 100 62 73 36 22 57 71
3 100 53 76

4
0.279803
0.720197
0.261087
0.738913

4
0.86813
0.13187
0.465854
0.534146

8
0.90784
0.09216
0.590391
0.409609
0.747543
0.252457
0.460574
0.539426

4
0.299341
0.700659
0.233564
0.766436

2
0.185058
0.814942

2
0.520672
0.479328

4
0.566165
0.433835
0.289533
0.710467

8
0.300987
0.699013
0.850499
0.149501
0.483349
0.516651
0.619252
0.380748

4
0.690666
0.309334
0.920476
0.079524

2
0.407981
0.592019

2
0.640765
0.359235

8
0.725457
0.274543
0.562795
0.437205
0.337001
0.662999
0.868387
0.131613

8
0.600304
0.399696
0.357935
0.642065
0.87334
0.12666
0.713084
0.286916

4
0.652209
0.347791
0.052205
0.947795

16
0.952573
0.047427
0.450971
0.549029
0.626471
0.373529
0.886609
0.113391
0.328756
0.671244
0.143589
0.856411
0.574108
0.425892
0.176529
0.823471

8
0.589492
0.410508
0.042561
0.957439
0.075321
0.924679
0.421754
0.578246

4
0.881304
0.118696
0.72805
0.27195

64
0.413976
0.586024
0.08547
0.91453
0.643203
0.356797
0.32019
0.67981
0.346993
0.653007
0.446617
0.553383
0.330923
0.669077
0.570907
0.429093
0.028262
0.971738
0.295519
0.704481
0.854609
0.145391
0.543463
0.456537
0.467586
0.532414
0.81207
0.18793
0.417613
0.582387
0.531965
0.468035
0.306031
0.693969
0.365676
0.634324
0.142133
0.857867
0.526114
0.473886
0.225047
0.774953
0.918915
0.081085
0.516521
0.483479
0.390787
0.609213
0.472116
0.527884
0.276148
0.723852
0.841007
0.158993
0.159894
0.840106
0.891049
0.108951
0.646068
0.353932
0.397889
0.602111
0.600662
0.399338

8
0.368956
0.631044
0.270766
0.729234
0.592614
0.407386
0.699284
0.300716

4
0.463334
0.536666
0.465891
0.534109

4
0.427247
0.572753
0.701611
0.298389

2
0.178044
0.821956

16
0.219591
0.780409
0.280832
0.719168
0.50704
0.49296
0.503512
0.496488
0.348156
0.651844
0.98443
0.01557
0.347058
0.652942
0.498816
0.501184

8
0.855705
0.144295
0.375688
0.624312
0.483989
0.516011
0.826403
0.173597

8
0.897238
0.102762
0.581454
0.418546
0.357471
0.642529
0.446403
0.553597

2
0.580338
0.419662

4
0.568635
0.431365
0.631301
0.368699

4
0.863749
0.136251
0.966401
0.033599

8
0.113951
0.886049
0.768818
0.231182
0.554432
0.445568
0.537248
0.462752

16
0.479594
0.520406
0.27741
0.72259
0.468966
0.531034
0.502846
0.497154
0.545226
0.454774
0.587687
0.412313
0.344287
0.655713
0.64537
0.35463

2
0.547707
0.452293

4
0.979554
0.020446
0.744826
0.255174

4
0.78153
0.21847
0.478114
0.521886

4
0.942764
0.057236
0.06614
0.93386

2
0.511367
0.488633

4
0.929386
0.070614
0.634157
0.365843

4
0.878416
0.121584
0.417247
0.582753

64
0.662591
0.337409
0.432424
0.567576
0.06771
0.93229
0.939418
0.060582
0.296861
0.703139
0.442963
0.557037
0.740606
0.259394
0.559775
0.440225
0.649955
0.350045
0.630092
0.369908
0.511796
0.488204
0.6098
0.3902
0.450082
0.549918
0.570194
0.429806
0.522568
0.477432
0.243534
0.756466
0.17171
0.82829
0.547623
0.452377
0.054182
0.945818
0.905924
0.094076
0.614823
0.385177
0.852898
0.147102
0.53237
0.46763
0.502145
0.497855
0.624378
0.375622
0.645469
0.354531
0.135468
0.864532
0.55438
0.44562
0.077034
0.922966
0.538427
0.461573
0.223246
0.776754
0.498551
0.501449

16
0.481762
0.518238
0.592422
0.407578
0.474393
0.525607
0.661927
0.338073
0.501396
0.498604
0.790734
0.209266
0.922424
0.077576
0.802997
0.197003

8
0.259366
0.740634
0.924463
0.075537
0.377678
0.622322
0.632442
0.367558

8
0.566557
0.433443
0.974953
0.025047
0.278571
0.721429
0.403497
0.596503

8
0.663323
0.336677
0.763922
0.236078
0.021211
0.978789
0.737134
0.262866

8
0.45683
0.54317
0.555806
0.444194
0.468205
0.531795
0.432604
0.567396

8
0.260474
0.739526
0.986103
0.013897
0.586525
0.413475
0.136645
0.863355

4
0.711467
0.288533
0.572467
0.427533

32
0.607077
0.392923
0.342802
0.657198
0.774031
0.225969
0.111175
0.888825
0.505158
0.494842
0.591731
0.408269
0.54172
0.45828
0.547613
0.452387
0.38286
0.61714
0.139868
0.860132
0.172998
0.827002
0.277438
0.722562
0.449821
0.550179
0.129208
0.870792
0.787717
0.212283
0.376331
0.623669

4
0.599237
0.400763
0.592718
0.407282

8
0.678717
0.321283
0.7189
0.2811
0.205859
0.794141
0.567658
0.432342

8
0.656653
0.343347
0.372435
0.627565
0.571692
0.428308
0.405641
0.594359

8
0.400132
0.599868
0.301689
0.698311
0.716018
0.283982
0.652395
0.347605

4
0.580363
0.419637
0.53403
0.46597

32
0.614985
0.385015
0.182726
0.817274
0.910076
0.089924
0.762892
0.237108
0.598255
0.401745
0.680343
0.319657
0.855567
0.144433
0.851529
0.148471
0.411632
0.588368
0.148204
0.851796
0.072123
0.927877
0.598447
0.401553
0.543322
0.456678
0.839478
0.160522
0.539087
0.460913
0.532829
0.467171

8
0.409652
0.590348
0.429405
0.570595
0.021417
0.978583
0.537592
0.462408

4
0.460411
0.539589
0.526414
0.473586

2
0.81675
0.18325

2
0.933118
0.066882

4
0.663492
0.336508
0.047328
0.952672

8
0.910921
0.089079
0.940611
0.059389
0.265167
0.734833
0.895022
0.104978

8
0.210403
0.789597
0.480092
0.519908
0.67462
0.32538
0.608721
0.391279

16
0.499374
0.500626
0.320359
0.679641
0.572399
0.427601
0.977709
0.022291
0.256235
0.743765
0.424684
0.575316
0.915677
0.084323
0.605462
0.394538

8
0.558701
0.441299
0.551953
0.448047
0.511838
0.488162
0.756112
0.243888

4
0.99064
0.00936
0.424869
0.575131

8
0.582579
0.417421
0.487195
0.512805
0.576302
0.423698
0.499852
0.500148

8
0.578901
0.421099
0.76633
0.23367
0.538462
0.461538
0.608863
0.391137

4
0.739941
0.260059
0.455835
0.544165

16
0.529658
0.470342
0.607845
0.392155
0.837764
0.162236
0.549202
0.450798
0.296525
0.703475
0.391001
0.608999
0.530469
0.469531
0.403438
0.596562

16
0.935878
0.064122
0.45783
0.54217
0.184136
0.815864
0.896641
0.103359
0.491663
0.508337
0.963901
0.036099
0.265602
0.734398
0.623589
0.376411

4
0.457963
0.542037
0.52356
0.47644

16
0.463563
0.536437
0.665064
0.334936
0.493201
0.506799
0.541607
0.458393
0.566636
0.433364
0.701262
0.298738
0.682128
0.317872
0.5284
0.4716

8
0.620644
0.379356
0.578787
0.421213
0.733934
0.266066
0.501188
0.498812

4
0.965896
0.034104
0.319555
0.680445

8
0.846677
0.153323
0.621284
0.378716
0.420704
0.579296
0.326466
0.673534

8
0.479039
0.520961
0.517719
0.482281
0.331644
0.668356
0.769499
0.230501

8
0.349168
0.650832
0.472598
0.527402
0.645421
0.354579
0.089412
0.910588

4
0.797905
0.202095
0.186247
0.813753

4
0.321849
0.678151
0.44833
0.55167

8
0.923602
0.076398
0.563235
0.436765
0.524393
0.475607
0.141159
0.858841

8
0.842615
0.157385
0.700343
0.299657
0.453171
0.546829
0.546968
0.453032

2
0.260859
0.739141

16
0.343039
0.656961
0.236384
0.763616
0.370347
0.629653
0.539867
0.460133
0.719841
0.280159
0.760216
0.239784
0.49643
0.50357
0.44854
0.55146

4
0.528606
0.471394
0.718269
0.281731

2
0.064156
0.935844

16
0.616083
0.383917
0.024952
0.975048
0.50445
0.49555
0.746376
0.253624
0.337218
0.662782
0.677626
0.322374
0.461643
0.538357
0.96189
0.03811

32
0.6134
0.3866
0.287453
0.712547
0.562492
0.437508
0.795713
0.204287
0.452489
0.547511
0.444891
0.555109
0.950861
0.049139
0.894991
0.105009
0.797754
0.202246
0.671401
0.328599
0.909422
0.090578
0.684952
0.315048
0.606856
0.393144
0.404043
0.595957
0.757123
0.242877
0.303106
0.696894

8
0.461034
0.538966
0.671136
0.328864
0.602189
0.397811
0.399858
0.600142

16
0.332986
0.667014
0.506316
0.493684
0.605717
0.394283
0.806353
0.193647
0.636164
0.363836
0.778244
0.221756
0.314024
0.685976
0.991522
0.008478

4
0.396899
0.603101
0.535879
0.464121

8
0.276844
0.723156
0.359448
0.640552
0.381218
0.618782
0.084449
0.915551

32
0.887465
0.112535
0.592065
0.407935
0.47609
0.52391
0.343067
0.656933
0.562559
0.437441
0.144871
0.855129
0.534097
0.465903
0.266319
0.733681
0.324558
0.675442
0.468425
0.531575
0.695249
0.304751
0.849443
0.150557
0.237031
0.762969
0.179066
0.820934
0.496109
0.503891
0.677564
0.322436

176
2.0
5.0
6.0
7.0
7.0
9.0
0.0
8.0
2.0
3.0
9.0
6.0
9.0
3.0
9.0
1.0
1.0
1.0
1.0
1.0
1.0
1.0
1.0
1.0
1.0
1.0
1.0
1.0
1.0
1.0
1.0
1.0
1.0
1.0
1.0
1.0
1.0
1.0
1.0
1.0
1.0
1.0
1.0
1.0
1.0
1.0
1.0
1.0
1.0
1.0
1.0
1.0
1.0
1.0
1.0
1.0
1.0
1.0
1.0
1.0
1.0
1.0
1.0
1.0
1.0
1.0
1.0
1.0
1.0
1.0
1.0
1.0
1.0
1.0
1.0
1.0
1.0
1.0
1.0
1.0
1.0
1.0
1.0
1.0
1.0
1.0
1.0
1.0
1.0
1.0
1.0
1.0
1.0
1.0
1.0
1.0
1.0
1.0
1.0
1.0
1.0
1.0
1.0
1.0
1.0
1.0
1.0
1.0
1.0
1.0
1.0
1.0
1.0
1.0
1.0
1.0
1.0
1.0
1.0
1.0
1.0
1.0
1.0
1.0
1.0
1.0
1.0
1.0
1.0
1.0
1.0
1.0
1.0
1.0
1.0
1.0
1.0
1.0
1.0
1.0
1.0
1.0
1.0
1.0
1.0
1.0
1.0
1.0
1.0
1.0
1.0
1.0
1.0
1.0
1.0
1.0
1.0
1.0
1.0
1.0
1.0
1.0
1.0
1.0
1.0
1.0
1.0
1.0
1.0
1.0
1.0
1.0
1.0
1.0
1.0
1.0

44
1.0
1.0
1.0
1.0
5.0
9.0
8.0
8.0
1.0
1.0
1.0
1.0
1.0
1.0
1.0
1.0
1.0
1.0
1.0
1.0
1.0
1.0
1.0
1.0
1.0
1.0
1.0
1.0
1.0
1.0
1.0
1.0
1.0
1.0
1.0
1.0
1.0
1.0
1.0
1.0
1.0
1.0
1.0
1.0

44
1.0
1.0
1.0
1.0
1.0
1.0
1.0
1.0
8.0
0.0
8.0
3.0
1.0
1.0
1.0
1.0
1.0
1.0
1.0
1.0
1.0
1.0
1.0
1.0
1.0
1.0
1.0
1.0
1.0
1.0
1.0
1.0
1.0
1.0
1.0
1.0
1.0
1.0
1.0
1.0
1.0
1.0
1.0
1.0

44
1.0
1.0
1.0
1.0
1.0
1.0
1.0
1.0
1.0
1.0
1.0
1.0
0.0
0.0
9.0
3.0
1.0
1.0
1.0
1.0
1.0
1.0
1.0
1.0
1.0
1.0
1.0
1.0
1.0
1.0
1.0
1.0
1.0
1.0
1.0
1.0
1.0
1.0
1.0
1.0
1.0
1.0
1.0
1.0

704
1.0
1.0
1.0
1.0
1.0
1.0
1.0
1.0
1.0
1.0
1.0
1.0
1.0
1.0
1.0
1.0
1.0
1.0
1.0
1.0
1.0
1.0
1.0
1.0
1.0
1.0
1.0
1.0
1.0
1.0
1.0
1.0
1.0
1.0
1.0
1.0
1.0
1.0
1.0
1.0
1.0
1.0
1.0
1.0
1.0
1.0
1.0
1.0
1.0
1.0
1.0
1.0
1.0
1.0
1.0
1.0
1.0
1.0
1.0
1.0
1.0
1.0
1.0
1.0
1.0
1.0
1.0
1.0
1.0
1.0
1.0
1.0
1.0
1.0
1.0
1.0
1.0
1.0
1.0
1.0
1.0
1.0
1.0
1.0
1.0
1.0
1.0
1.0
1.0
1.0
1.0
1.0
1.0
1.0
1.0
1.0
1.0
1.0
1.0
1.0
1.0
1.0
1.0
1.0
1.0
1.0
1.0
1.0
1.0
1.0
1.0
1.0
1.0
1.0
1.0
1.0
1.0
1.0
1.0
1.0
1.0
1.0
1.0
1.0
1.0
1.0
1.0
1.0
1.0
1.0
1.0
1.0
1.0
1.0
1.0
1.0
1.0
1.0
1.0
1.0
1.0
1.0
1.0
1.0
1.0
1.0
1.0
1.0
1.0
1.0
1.0
1.0
1.0
1.0
1.0
1.0
1.0
1.0
1.0
1.0
1.0
1.0
1.0
1.0
1.0
1.0
1.0
1.0
1.0
1.0
1.0
1.0
1.0
1.0
1.0
1.0
1.0
1.0
1.0
1.0
1.0
1.0
1.0
1.0
1.0
1.0
1.0
1.0
1.0
1.0
1.0
1.0
1.0
1.0
1.0
1.0
1.0
1.0
1.0
1.0
1.0
1.0
1.0
1.0
1.0
1.0
1.0
1.0
1.0
1.0
1.0
1.0
1.0
1.0
1.0
1.0
1.0
1.0
1.0
1.0
1.0
1.0
1.0
1.0
1.0
1.0
1.0
1.0
1.0
1.0
1.0
1.0
1.0
1.0
1.0
1.0
1.0
1.0
1.0
1.0
1.0
1.0
1.0
1.0
1.0
1.0
1.0
1.0
1.0
1.0
1.0
1.0
1.0
1.0
1.0
1.0
6.0
2.0
6.0
1.0
8.0
7.0
3.0
0.0
8.0
6.0
7.0
1.0
0.0
3.0
0.0
1.0
9.0
5.0
8.0
4.0
2.0
7.0
6.0
9.0
4.0
9.0
8.0
6.0
2.0
0.0
9.0
0.0
4.0
7.0
9.0
1.0
2.0
9.0
1.0
1.0
4.0
5.0
6.0
0.0
7.0
5.0
4.0
7.0
2.0
3.0
1.0
7.0
1.0
3.0
4.0
8.0
4.0
9.0
1.0
8.0
6.0
7.0
5.0
2.0
1.0
1.0
1.0
1.0
1.0
1.0
1.0
1.0
1.0
1.0
1.0
1.0
1.0
1.0
1.0
1.0
1.0
1.0
1.0
1.0
1.0
1.0
1.0
1.0
1.0
1.0
1.0
1.0
1.0
1.0
1.0
1.0
1.0
1.0
1.0
1.0
1.0
1.0
1.0
1.0
1.0
1.0
1.0
1.0
1.0
1.0
1.0
1.0
1.0
1.0
1.0
1.0
1.0
1.0
1.0
1.0
1.0
1.0
1.0
1.0
1.0
1.0
1.0
1.0
1.0
1.0
1.0
1.0
1.0
1.0
1.0
1.0
1.0
1.0
1.0
1.0
1.0
1.0
1.0
1.0
1.0
1.0
1.0
1.0
1.0
1.0
1.0
1.0
1.0
1.0
1.0
1.0
1.0
1.0
1.0
1.0
1.0
1.0
1.0
1.0
1.0
1.0
1.0
1.0
1.0
1.0
1.0
1.0
1.0
1.0
1.0
1.0
1.0
1.0
1.0
1.0
1.0
1.0
1.0
1.0
1.0
1.0
1.0
1.0
1.0
1.0
1.0
1.0
1.0
1.0
1.0
1.0
1.0
1.0
1.0
1.0
1.0
1.0
1.0
1.0
1.0
1.0
1.0
1.0
1.0
1.0
1.0
1.0
1.0
1.0
1.0
1.0
1.0
1.0
1.0
1.0
1.0
1.0
1.0
1.0
1.0
1.0
1.0
1.0
1.0
1.0
1.0
1.0
1.0
1.0
1.0
1.0
1.0
1.0
1.0
1.0
1.0
1.0
1.0
1.0
1.0
1.0
1.0
1.0
1.0
1.0
1.0
1.0
1.0
1.0
1.0
1.0
1.0
1.0
1.0
1.0
1.0
1.0
1.0
1.0
1.0
1.0
1.0
1.0
1.0
1.0
1.0
1.0
1.0
1.0
1.0
1.0
1.0
1.0
1.0
1.0
1.0
1.0
1.0
1.0
1.0
1.0
1.0
1.0
1.0
1.0
1.0
1.0
1.0
1.0
1.0
1.0
1.0
1.0
1.0
1.0
1.0
1.0
1.0
1.0
1.0
1.0
1.0
1.0
1.0
1.0
1.0
1.0
1.0
1.0
1.0
1.0
1.0
1.0
1.0
1.0
1.0
1.0
1.0
1.0
1.0
1.0
1.0
1.0
1.0
1.0
1.0
1.0
1.0
1.0
1.0
1.0
1.0
1.0
1.0
1.0
1.0
1.0
1.0
1.0
1.0
1.0
1.0
1.0
1.0
1.0
1.0
1.0
1.0
1.0
1.0
1.0
1.0
1.0
1.0
1.0
1.0
1.0
1.0
1.0
1.0
1.0
1.0
1.0
1.0
1.0
1.0
1.0
1.0
1.0
1.0
1.0
1.0
1.0
1.0
1.0
1.0
1.0
1.0
1.0
1.0
1.0
1.0
1.0
1.0
1.0
1.0
1.0
1.0
1.0
1.0
1.0
1.0
1.0
1.0
1.0
1.0
1.0
1.0
1.0
1.0
1.0
1.0
1.0
1.0
1.0
1.0
1.0
1.0
1.0
1.0
1.0
1.0
1.0
1.0
1.0
1.0
1.0
1.0
1.0
1.0
1.0
1.0
1.0
1.0
1.0
1.0
1.0
1.0
1.0
1.0
1.0
1.0
1.0
1.0
1.0
1.0
1.0
1.0
1.0
1.0
1.0
1.0
1.0

176
1.0
1.0
1.0
1.0
1.0
1.0
1.0
1.0
1.0
1.0
1.0
1.0
1.0
1.0
1.0
1.0
1.0
1.0
1.0
1.0
1.0
1.0
1.0
1.0
1.0
1.0
1.0
1.0
1.0
1.0
1.0
1.0
1.0
1.0
1.0
1.0
1.0
1.0
1.0
1.0
1.0
1.0
1.0
1.0
1.0
1.0
1.0
1.0
1.0
1.0
1.0
1.0
1.0
1.0
1.0
1.0
1.0
1.0
1.0
1.0
1.0
1.0
1.0
1.0
1.0
1.0
1.0
1.0
1.0
1.0
1.0
1.0
1.0
1.0
1.0
1.0
1.0
1.0
1.0
1.0
0.0
2.0
7.0
0.0
8.0
8.0
1.0
6.0
4.0
8.0
1.0
1.0
6.0
8.0
1.0
8.0
1.0
1.0
1.0
1.0
1.0
1.0
1.0
1.0
1.0
1.0
1.0
1.0
1.0
1.0
1.0
1.0
1.0
1.0
1.0
1.0
1.0
1.0
1.0
1.0
1.0
1.0
1.0
1.0
1.0
1.0
1.0
1.0
1.0
1.0
1.0
1.0
1.0
1.0
1.0
1.0
1.0
1.0
1.0
1.0
1.0
1.0
1.0
1.0
1.0
1.0
1.0
1.0
1.0
1.0
1.0
1.0
1.0
1.0
1.0
1.0
1.0
1.0
1.0
1.0
1.0
1.0
1.0
1.0
1.0
1.0
1.0
1.0
1.0
1.0
1.0
1.0
1.0
1.0
1.0
1.0

88
1.0
1.0
1.0
1.0
1.0
1.0
1.0
1.0
1.0
1.0
1.0
1.0
1.0
1.0
1.0
1.0
1.0
1.0
1.0
1.0
1.0
1.0
1.0
1.0
1.0
1.0
1.0
1.0
1.0
1.0
1.0
1.0
1.0
1.0
1.0
1.0
1.0
1.0
1.0
1.0
1.0
1.0
1.0
1.0
1.0
1.0
1.0
1.0
8.0
9.0
6.0
3.0
3.0
8.0
0.0
8.0
1.0
1.0
1.0
1.0
1.0
1.0
1.0
1.0
1.0
1.0
1.0
1.0
1.0
1.0
1.0
1.0
1.0
1.0
1.0
1.0
1.0
1.0
1.0
1.0
1.0
1.0
1.0
1.0
1.0
1.0
1.0
1.0

44
1.0
1.0
1.0
1.0
1.0
1.0
1.0
1.0
1.0
1.0
1.0
1.0
1.0
1.0
1.0
1.0
1.0
1.0
1.0
1.0
1.0
1.0
1.0
1.0
1.0
1.0
1.0
1.0
6.0
7.0
1.0
0.0
1.0
1.0
1.0
1.0
1.0
1.0
1.0
1.0
1.0
1.0
1.0
1.0

44
1.0
1.0
1.0
1.0
1.0
1.0
1.0
1.0
1.0
1.0
1.0
1.0
1.0
1.0
1.0
1.0
1.0
1.0
1.0
1.0
1.0
1.0
1.0
1.0
1.0
1.0
1.0
1.0
1.0
1.0
1.0
1.0
0.0
8.0
9.0
8.0
1.0
1.0
1.0
1.0
1.0
1.0
1.0
1.0

704
1.0
1.0
1.0
1.0
1.0
1.0
1.0
1.0
1.0
1.0
1.0
1.0
1.0
1.0
1.0
1.0
1.0
1.0
1.0
1.0
1.0
1.0
1.0
1.0
1.0
1.0
1.0
1.0
1.0
1.0
1.0
1.0
1.0
1.0
1.0
1.0
1.0
1.0
1.0
1.0
1.0
1.0
1.0
1.0
1.0
1.0
1.0
1.0
1.0
1.0
1.0
1.0
1.0
1.0
1.0
1.0
1.0
1.0
1.0
1.0
1.0
1.0
1.0
1.0
1.0
1.0
1.0
1.0
1.0
1.0
1.0
1.0
1.0
1.0
1.0
1.0
1.0
1.0
1.0
1.0
1.0
1.0
1.0
1.0
1.0
1.0
1.0
1.0
1.0
1.0
1.0
1.0
1.0
1.0
1.0
1.0
1.0
1.0
1.0
1.0
1.0
1.0
1.0
1.0
1.0
1.0
1.0
1.0
1.0
1.0
1.0
1.0
1.0
1.0
1.0
1.0
1.0
1.0
1.0
1.0
1.0
1.0
1.0
1.0
1.0
1.0
1.0
1.0
1.0
1.0
1.0
1.0
1.0
1.0
1.0
1.0
1.0
1.0
1.0
1.0
1.0
1.0
1.0
1.0
1.0
1.0
1.0
1.0
1.0
1.0
1.0
1.0
1.0
1.0
1.0
1.0
1.0
1.0
1.0
1.0
1.0
1.0
1.0
1.0
1.0
1.0
1.0
1.0
1.0
1.0
1.0
1.0
1.0
1.0
1.0
1.0
1.0
1.0
1.0
1.0
1.0
1.0
1.0
1.0
1.0
1.0
1.0
1.0
1.0
1.0
1.0
1.0
1.0
1.0
1.0
1.0
1.0
1.0
1.0
1.0
1.0
1.0
1.0
1.0
1.0
1.0
1.0
1.0
1.0
1.0
1.0
1.0
1.0
1.0
1.0
1.0
1.0
1.0
1.0
1.0
1.0
1.0
1.0
1.0
1.0
1.0
1.0
1.0
1.0
1.0
1.0
1.0
1.0
1.0
1.0
1.0
1.0
1.0
1.0
1.0
1.0
1.0
1.0
1.0
1.0
1.0
1.0
1.0
1.0
1.0
1.0
1.0
1.0
1.0
1.0
1.0
1.0
1.0
1.0
1.0
1.0
1.0
1.0
1.0
1.0
1.0
1.0
1.0
1.0
1.0
1.0
1.0
1.0
1.0
1.0
1.0
1.0
1.0
1.0
1.0
1.0
1.0
1.0
1.0
1.0
1.0
1.0
1.0
1.0
1.0
1.0
1.0
1.0
1.0
1.0
1.0
1.0
1.0
1.0
1.0
1.0
1.0
1.0
1.0
1.0
1.0
1.0
1.0
1.0
1.0
1.0
1.0
1.0
1.0
1.0
1.0
1.0
1.0
1.0
1.0
1.0
1.0
1.0
1.0
1.0
1.0
1.0
1.0
1.0
1.0
1.0
1.0
1.0
1.0
1.0
1.0
1.0
1.0
1.0
1.0
1.0
1.0
1.0
1.0
1.0
1.0
1.0
1.0
1.0
1.0
1.0
1.0
1.0
1.0
1.0
1.0
1.0
1.0
1.0
1.0
1.0
1.0
1.0
1.0
1.0
1.0
1.0
1.0
1.0
1.0
1.0
1.0
1.0
1.0
1.0
1.0
1.0
1.0
1.0
1.0
1.0
1.0
1.0
1.0
1.0
1.0
1.0
1.0
1.0
1.0
1.0
1.0
1.0
1.0
1.0
1.0
1.0
1.0
1.0
1.0
1.0
1.0
1.0
1.0
1.0
1.0
1.0
1.0
1.0
1.0
1.0
1.0
1.0
1.0
1.0
1.0
1.0
1.0
1.0
1.0
1.0
1.0
1.0
1.0
1.0
1.0
1.0
1.0
1.0
1.0
1.0
1.0
1.0
1.0
1.0
1.0
1.0
1.0
1.0
1.0
1.0
1.0
1.0
1.0
1.0
1.0
1.0
1.0
1.0
1.0
1.0
1.0
1.0
1.0
1.0
1.0
1.0
1.0
1.0
1.0
1.0
1.0
1.0
1.0
1.0
1.0
1.0
1.0
1.0
1.0
1.0
1.0
1.0
1.0
1.0
1.0
1.0
1.0
1.0
1.0
1.0
1.0
1.0
1.0
1.0
1.0
1.0
1.0
1.0
1.0
1.0
1.0
1.0
1.0
1.0
1.0
1.0
1.0
1.0
1.0
1.0
1.0
1.0
1.0
1.0
1.0
1.0
1.0
1.0
1.0
1.0
1.0
1.0
1.0
1.0
1.0
1.0
1.0
1.0
1.0
1.0
1.0
1.0
1.0
1.0
1.0
1.0
1.0
1.0
1.0
1.0
1.0
1.0
1.0
1.0
1.0
1.0
1.0
1.0
1.0
1.0
1.0
1.0
1.0
1.0
1.0
1.0
1.0
1.0
1.0
1.0
1.0
1.0
1.0
1.0
1.0
1.0
1.0
1.0
1.0
1.0
1.0
1.0
1.0
1.0
1.0
1.0
1.0
1.0
1.0
1.0
1.0
1.0
1.0
1.0
1.0
6.0
9.0
8.0
5.0
4.0
7.0
7.0
0.0
4.0
3.0
3.0
5.0
4.0
1.0
7.0
6.0
9.0
1.0
7.0
5.0
1.0
9.0
4.0
1.0
8.0
8.0
9.0
1.0
2.0
0.0
8.0
9.0
0.0
5.0
1.0
0.0
8.0
8.0
5.0
1.0
0.0
1.0
1.0
0.0
4.0
0.0
7.0
6.0
3.0
5.0
2.0
6.0
0.0
8.0
4.0
8.0
2.0
7.0
0.0
6.0
4.0
8.0
4.0
2.0
1.0
1.0
1.0
1.0
1.0
1.0
1.0
1.0
1.0
1.0
1.0
1.0
1.0
1.0
1.0
1.0
1.0
1.0
1.0
1.0
1.0
1.0
1.0
1.0
1.0
1.0
1.0
1.0
1.0
1.0
1.0
1.0
1.0
1.0
1.0
1.0
1.0
1.0
1.0
1.0
1.0
1.0
1.0
1.0
1.0
1.0
1.0
1.0
1.0
1.0
1.0
1.0
1.0
1.0
1.0
1.0
1.0
1.0
1.0
1.0
1.0
1.0
1.0
1.0

44
1.0
1.0
1.0
1.0
1.0
1.0
1.0
1.0
1.0
1.0
1.0
1.0
1.0
1.0
1.0
1.0
1.0
1.0
1.0
1.0
1.0
1.0
1.0
1.0
1.0
1.0
1.0
1.0
1.0
1.0
1.0
1.0
1.0
1.0
1.0
1.0
1.0
1.0
1.0
1.0
6.0
4.0
3.0
0.0

